c status 70 1469386396874
c status 30 1469386396874
s td 32 30 77
b 1 3 1
b 2 7 1
b 3 8 1
b 4 13 1
b 5 77 1
b 6 76 57 1
b 7 22 21 1 11
b 8 19 20 1 11
b 9 35 46 57 1
b 10 21 20 1 11
b 11 47 50 56 69 38 1 26
b 12 38 1 26 48
b 13 9 10 12 14 15 16 17 18 1
b 14 10 12 14 15 16 17 18 6 1
b 15 12 14 15 16 17 18 2 6 1 11
b 16 18 2 4 5 6 24 68 1 11
b 17 2 4 5 6 24 68 1 11 25 27 28 29 30 31 32 33
b 18 45 1 11 23 25 26 27 28 29 30 31 32 33 34 36 37 39 40 41
b 19 49 52 1 11 23 25 26 27 28 29 30 31 32 33 34 36 37 39 40 41 48 51
b 20 53 54 55 58 59 1 11 23 25 26 27 28 29 30 31 32 33 34 36 37 39 40 41 48 51
b 21 54 55 58 59 60 1 11 23 25 26 27 28 29 30 31 32 33 34 36 37 39 40 41 48 51 61
b 22 55 58 62 59 60 1 11 23 25 26 27 28 29 30 31 32 33 34 36 37 39 40 41 48 51 61
b 23 58 62 59 60 1 11 23 25 26 27 28 29 30 31 32 33 34 36 37 39 40 41 48 51 61 63
b 24 62 59 60 1 11 23 25 26 27 28 29 30 31 32 33 34 36 37 39 40 41 48 51 61 63 64
b 25 59 60 65 1 11 23 25 26 27 28 29 30 31 32 33 34 36 37 39 40 41 48 51 61 63 64
b 26 60 65 66 1 11 23 25 26 27 28 29 30 31 32 33 34 36 37 39 40 41 48 51 61 63 64 67
b 27 65 66 1 11 23 25 26 27 28 29 30 31 32 33 34 36 37 39 40 41 48 51 61 63 64 67 70 71
b 28 66 1 11 23 25 26 27 28 29 30 31 32 33 34 36 37 39 40 41 48 51 61 63 64 67 70 71 72 73
b 29 44 1 11 23 25 26 27 28 29 30 31 32 33 34 36 37 39 40 41 48 51 61 63 64 67 70 71 72 73 74
b 30 42 1 11 23 25 26 27 28 29 30 31 32 33 34 36 37 39 40 41 48 51 61 63 64 67 70 71 72 73 74
b 31 43 1 11 23 25 26 27 28 29 30 31 32 33 34 36 37 39 40 41 48 51 61 63 64 67 70 71 72 73 74
b 32 75 1 11 23 25 26 27 28 29 30 31 32 33 34 36 37 39 40 41 48 51 61 63 64 67 70 71 72 73 74
1 2
1 32
32 29
32 30
32 31
32 28
28 27
27 26
26 25
25 24
24 23
23 22
22 21
21 20
22 19
22 18
22 17
17 16
16 15
15 14
14 13
21 12
12 11
22 10
10 7
10 8
18 5
5 9
9 6
6 4
6 3
